------------------------------------------------------------------------------------------------------------------------------------------------------
------------------------------------------------------------------------------------------------------------------------------------------------------
Iteration 1 for 3 Relay Stations with M_init 
------------------------------------------------------------------------------------------------------------------------------------------------------
------------------------------------------------------------------------------------------------------------------------------------------------------
Wing Sizing
1) Wing setup:        0.02 s
2) Section calc:      0.00 s
3) 2D stall database: 97.66 s
4) Interpolation:     0.01 s
5) VLM sweep:         185.79 s
Output folder: Final_UAV_Sizing/Output/Run_on_06-16_13-28\RS_3\Wing_Sizing
6) Plotting:          0.28 s
Total runtime:        283.75 s
Failed to save CSV: 'charmap' codec can't encode character '\u03b1' in position 6: character maps to <undefined>
--------------------------------------------------
Propeller Sizing
--------------------------------------------------
Battery Sizing
---------Plot Race Results---------
---------BMN-Cbel-230425.csv---------
3048.5015939119476 Wh
---------BMN-Lbel-270425.csv---------
3660.553214344649 Wh
---------FV-Lbel-270425.csv---------
2907.5798822103466 Wh
---------JE-Bita-290624.csv---------
3326.7154400766594 Wh
---------NP-PPita-020724.csv---------
2273.808356081906 Wh
---------PS-Bita-290624.csv---------
3212.9492492807894 Wh
---------PS-Cbel-230425.csv---------
2879.3210816549727 Wh
---------PS-Eita-300624.csv---------
2983.6802890155705 Wh
---------PS-Ifra-170624.csv---------
2731.1543196445014 Wh
---------PS-Lbel-270425.csv---------
3519.2004309678687 Wh
---------PS-Pita-010724.csv---------
3369.2961890013466 Wh
---------PS-PPita-020724.csv---------
2122.01447365494 Wh
---------RE-Bita-290624.csv---------
2851.5875926062636 Wh
---------RE-Cbel-230425.csv---------
2808.807986478165 Wh
---------RE-Cbel-270425.csv---------
3476.143266271936 Wh
---------RE-Eita-300624.csv---------
2801.354306600333 Wh
---------RE-Pita-010724.csv---------
3192.1630874180555 Wh
---------RS-Cbel-230425.csv---------
2336.2010330547123 Wh
---------RS-Lbel-270425.csv---------
2909.9284206200655 Wh
---------TP-Bita-290624.csv---------
2854.185368460757 Wh
---------TP-Cbel-230425.csv---------
2796.26264156845 Wh
---------TP-Eita-300624.csv---------
2809.63248318586 Wh
---------TP-Ifra-170624.csv---------
3463.6667757281066 Wh
---------TP-Lbel-270425.csv---------
3473.634136933202 Wh
---------TP-Pita-010724.csv---------
3209.316654826507 Wh
---------WA-Bita-290624.csv---------
3164.5892951426704 Wh
---------WA-Pita-010724.csv---------
3359.035577661214 Wh
---------WE-Eita-300624.csv---------
3012.146005233324 Wh


------------------------------------------------------------------------------------

---------Summary--------------------------------------------------------------------

Maximum battery capacity necessary: 3660.55 Wh (Race: BMN-Lbel-270425.csv)

Average battery capacity necessary across all races: 3019.77 Wh

Done
--------------------------------------------------
Tail Sizing
5.00%10.00%15.00%20.00%25.00%30.00%35.00%40.00%45.00%50.00%55.00%60.00%65.00%70.00%75.00%80.00%85.00%90.00%95.00%100.00%
--------------------------------------------------
Structure Sizing
----------------------------------------------------
The Max Shear FRONT VTOL: 25964787.732889332 The Yield Shear: 330000000.0
The Max Stress FRONT VTOL: 14990777.187035149 The yield stress 480000000.0
The FRONT VTOL Thickness: 0.0010000000000000009
----------------------------------------------------
The Max Shear BACK VTOL: 59670471.88137909 The Yield Shear: 330000000.0
The Max Stress BACK VTOL: 34450763.003386214 The yield stress 480000000.0
The BACK VTOL Thickness: 0.0010000000000000009
----------------------------------------------------
The Von Mises Stress Wingbox: 333.80234145206504 The yield stress 324.0
The Von Mises Shear Wingbox: 192.72087169347716 The yield stress 283.0
The Axial stress Wingbox: 0.026607490831359645 The Buckle stress 53.896519584245596
The Tip Deflection is: 0.005018707469923743 And the Max allowable deflection is: 0.1575
The Twist Angle: -0.002456560228074871 And the allowable angle is: 0.0174
The Wingbox Thickness: 0.039 0.038 0.0010000000000000009
----------------------------------------------------
The Von Mises Stress Wingbox: 173.44324020766464 The yield stress 324.0
The Von Mises Shear Wingbox: 100.1375014230161 The yield stress 283.0
The Axial stress Wingbox: 0.013478794697465069 The Buckle stress 52.533201213649136
The Tip Deflection is: 0.002608350047625521 And the Max allowable deflection is: 0.1575
The Twist Angle: -0.0012282801140374355 And the allowable angle is: 0.0174
The Wingbox Thickness: 0.039 0.037 0.0020000000000000018
----------------------------------------------------
The Leg Stress: 19321211.14767723 The buckle 501019.5011941891 The yield stress 324000000.0
The Leg: 0.001
----------------------------------------------------
The Leg Stress: 4830302.786919308 The buckle 2004078.0047767565 The yield stress 324000000.0
The Leg: 0.002
----------------------------------------------------
The Leg Stress: 2146801.2386308033 The buckle 4509175.510747701 The yield stress 324000000.0
The Leg: 0.003
-------------------------------------------
The Von Mises Stress Sec1: 0.352559838919218 The yield stress 150.0
The Von Mises Shear Sec1: 0.2035505179054616 The yield stress 70.0
The Axial stress Sec1: 0.26631504421751284 The Buckle stress 6800.990180221873
-------------------------------------------
The Von Mises Stress Sec2: 79.1460625975577 The yield stress 150.0
The Von Mises Shear Sec2: 45.695000545998916 The yield stress 70.0
The Axial stress Sec2: 0.5326300884350257 The Buckle stress 6800.990180221873
-------------------------------------------
The Von Mises Stress Sec3: 3.903317940977113 The yield stress 150.0
The Von Mises Shear Sec3: 2.2535816639558317 The yield stress 70.0
The Axial stress Sec3: 0.26631504421751284 The Buckle stress 6800.990180221873
-------------------------------------------
The Fuselage Thickness 0.126 0.125 0.0010000000000000009
-------------------------------------------
Passes Section 1
Passes Section 2
Passes Section 3
-------------------------------------------
Wing Skin MASS: 0.5704379234782753
VTOL POLE MASS: 1.6114547560858035
FUSELAGE MASS: 0.8352213096092636
LEG MASS: 0.09432317783137995
WingBox Mass 4.181660883857851
-------------------------------------------
THE STRUCTURE MASS: 6.722660127384298
-------------------------------------------
-------------------------------------------
THE FINAL MASS: 18.90457328911497
-------------------------------------------
Payload Mass: 2.063 kg, Propeller Mass: 3.75 kg, Battery Mass: 9.761475238252398 kg, Structure Mass: 6.722660127384298 kg
Final Mass for 3 Relay Stations: 22.2971353656367 kg (iteration 1)
Current Runtime of main: 00:06:55 (h:m:s)
------------------------------------------------------------------------------------------------------------------------------------------------------
------------------------------------------------------------------------------------------------------------------------------------------------------
Iteration 2 for 3 Relay Stations with M_init 
------------------------------------------------------------------------------------------------------------------------------------------------------
------------------------------------------------------------------------------------------------------------------------------------------------------
Wing Sizing
1) Wing setup:        0.02 s
2) Section calc:      0.00 s
3) 2D stall database: 48.44 s
4) Interpolation:     0.01 s
