------------------------------------------------------------------------------------------------------------------------------------------------------
------------------------------------------------------------------------------------------------------------------------------------------------------
Iteration 1 for 3 Relay Stations with M_init 
------------------------------------------------------------------------------------------------------------------------------------------------------
------------------------------------------------------------------------------------------------------------------------------------------------------
Wing Sizing
1) Wing setup:        0.05 s
2) Section calc:      0.00 s
3) 2D stall database: 118.76 s
4) Interpolation:     0.02 s
5) VLM sweep:         153.22 s
6) Plotting:          1.22 s
Total runtime:        273.26 s
Failed to save CSV: 'charmap' codec can't encode character '\u03b1' in position 6: character maps to <undefined>
--------------------------------------------------
Propeller Sizing
--------------------------------------------------
Battery Sizing
---------Plot Race Results---------
---------BMN-Cbel-230425.csv---------
3048.5015939119476 Wh
---------BMN-Lbel-270425.csv---------
3660.5532143446435 Wh
---------FV-Lbel-270425.csv---------
2907.5798822103457 Wh
---------JE-Bita-290624.csv---------
3326.7154400766576 Wh
---------NP-PPita-020724.csv---------
2273.8083560819077 Wh
---------PS-Bita-290624.csv---------
3212.949249280788 Wh
---------PS-Cbel-230425.csv---------
2879.321081654967 Wh
---------PS-Eita-300624.csv---------
2983.6802890155686 Wh
---------PS-Ifra-170624.csv---------
2731.1543196445 Wh
---------PS-Lbel-270425.csv---------
3519.2004309678687 Wh
---------PS-Pita-010724.csv---------
3369.2961890013466 Wh
---------PS-PPita-020724.csv---------
2122.0144736549382 Wh
---------RE-Bita-290624.csv---------
2851.58759260626 Wh
---------RE-Cbel-230425.csv---------
2808.807986478161 Wh
---------RE-Cbel-270425.csv---------
3476.1432662719344 Wh
---------RE-Eita-300624.csv---------
2801.354306600333 Wh
---------RE-Pita-010724.csv---------
3192.163087418052 Wh
---------RS-Cbel-230425.csv---------
2336.2010330547105 Wh
---------RS-Lbel-270425.csv---------
2909.9284206200605 Wh
---------TP-Bita-290624.csv---------
2854.1853684607563 Wh
---------TP-Cbel-230425.csv---------
2796.26264156845 Wh
---------TP-Eita-300624.csv---------
2809.6324831858583 Wh
---------TP-Ifra-170624.csv---------
3463.6667757281057 Wh
---------TP-Lbel-270425.csv---------
3473.634136933202 Wh
---------TP-Pita-010724.csv---------
3209.3166548265053 Wh
---------WA-Bita-290624.csv---------
3164.5892951426686 Wh
---------WA-Pita-010724.csv---------
3359.0355776612123 Wh
---------WE-Eita-300624.csv---------
3012.1460052333205 Wh


------------------------------------------------------------------------------------

---------Summary--------------------------------------------------------------------

Maximum battery capacity necessary: 3660.55 Wh (Race: BMN-Lbel-270425.csv)

Average battery capacity necessary across all races: 3019.77 Wh

Done
--------------------------------------------------
Tail Sizing
5.00%10.00%15.00%20.00%25.00%30.00%35.00%40.00%45.00%50.00%55.00%60.00%65.00%70.00%75.00%80.00%85.00%90.00%95.00%100.00%
--------------------------------------------------
Structure Sizing
----------------------------------------------------
The Max Shear FRONT VTOL: 25964787.732889332 The Yield Shear: 330000000.0
The Max Stress FRONT VTOL: 14990777.187035149 The yield stress 480000000.0
The FRONT VTOL Thickness: 0.0010000000000000009
----------------------------------------------------
The Max Shear BACK VTOL: 59670471.88137909 The Yield Shear: 330000000.0
The Max Stress BACK VTOL: 34450763.003386214 The yield stress 480000000.0
The BACK VTOL Thickness: 0.0010000000000000009
----------------------------------------------------
The Von Mises Stress Wingbox: 333.80234145206447 The yield stress 324.0
The Von Mises Shear Wingbox: 192.7208716934768 The yield stress 283.0
The Axial stress Wingbox: 0.026607490831359645 The Buckle stress 53.896519584245596
The Tip Deflection is: 0.005018707469923731 And the Max allowable deflection is: 0.1575
The Twist Angle: -0.002456560228074871 And the allowable angle is: 0.0174
The Wingbox Thickness: 0.039 0.038 0.0010000000000000009
----------------------------------------------------
The Von Mises Stress Wingbox: 173.4432402076643 The yield stress 324.0
The Von Mises Shear Wingbox: 100.13750142301592 The yield stress 283.0
The Axial stress Wingbox: 0.013478794697465069 The Buckle stress 52.533201213649136
The Tip Deflection is: 0.0026083500476255144 And the Max allowable deflection is: 0.1575
The Twist Angle: -0.0012282801140374355 And the allowable angle is: 0.0174
The Wingbox Thickness: 0.039 0.037 0.0020000000000000018
----------------------------------------------------
The Leg Stress: 19321211.14767723 The buckle 501019.5011941891 The yield stress 324000000.0
The Leg: 0.001
----------------------------------------------------
The Leg Stress: 4830302.786919308 The buckle 2004078.0047767565 The yield stress 324000000.0
The Leg: 0.002
----------------------------------------------------
The Leg Stress: 2146801.2386308033 The buckle 4509175.510747701 The yield stress 324000000.0
The Leg: 0.003
-------------------------------------------
The Von Mises Stress Sec1: 0.352559838919218 The yield stress 150.0
The Von Mises Shear Sec1: 0.2035505179054616 The yield stress 70.0
The Axial stress Sec1: 0.26631504421751284 The Buckle stress 6800.990180221873
-------------------------------------------
The Von Mises Stress Sec2: 79.1460625975577 The yield stress 150.0
The Von Mises Shear Sec2: 45.695000545998916 The yield stress 70.0
The Axial stress Sec2: 0.5326300884350257 The Buckle stress 6800.990180221873
-------------------------------------------
The Von Mises Stress Sec3: 3.903317940977111 The yield stress 150.0
The Von Mises Shear Sec3: 2.253581663955831 The yield stress 70.0
The Axial stress Sec3: 0.26631504421751284 The Buckle stress 6800.990180221873
-------------------------------------------
The Fuselage Thickness 0.126 0.125 0.0010000000000000009
-------------------------------------------
Passes Section 1
Passes Section 2
Passes Section 3
-------------------------------------------
Wing Skin MASS: 0.5704379234782753
VTOL POLE MASS: 1.6114547560858035
FUSELAGE MASS: 0.8352213096092636
LEG MASS: 0.09432317783137995
WingBox Mass 4.181660883857851
-------------------------------------------
THE STRUCTURE MASS: 6.722660127384298
-------------------------------------------
-------------------------------------------
THE FINAL MASS: 18.904573289114957
-------------------------------------------
Payload Mass: 2.063 kg, Propeller Mass: 3.75 kg, Battery Mass: 9.761475238252382 kg, Structure Mass: 6.722660127384298 kg
Final Mass for 3 Relay Stations: 22.29713536563668 kg (iteration 1)
Current Runtime of main: 00:07:52 (h:m:s)
------------------------------------------------------------------------------------------------------------------------------------------------------
------------------------------------------------------------------------------------------------------------------------------------------------------
Iteration 2 for 3 Relay Stations with M_init 
------------------------------------------------------------------------------------------------------------------------------------------------------
------------------------------------------------------------------------------------------------------------------------------------------------------
Wing Sizing
1) Wing setup:        0.04 s
2) Section calc:      0.00 s
3) 2D stall database: 75.46 s
4) Interpolation:     0.01 s
5) VLM sweep:         151.97 s
6) Plotting:          0.40 s
Total runtime:        227.89 s
Failed to save CSV: 'charmap' codec can't encode character '\u03b1' in position 6: character maps to <undefined>
--------------------------------------------------
Propeller Sizing
--------------------------------------------------
Battery Sizing
---------Plot Race Results---------
---------BMN-Cbel-230425.csv---------
3002.613035758075 Wh
---------BMN-Lbel-270425.csv---------
3647.97614311052 Wh
---------FV-Lbel-270425.csv---------
2897.736959617554 Wh
---------JE-Bita-290624.csv---------
3263.610649017908 Wh
---------NP-PPita-020724.csv---------
2280.2143750651658 Wh
---------PS-Bita-290624.csv---------
3150.1747569597446 Wh
---------PS-Cbel-230425.csv---------
2827.6097258604877 Wh
---------PS-Eita-300624.csv---------
3013.307933320628 Wh
---------PS-Ifra-170624.csv---------
2723.619946639416 Wh
---------PS-Lbel-270425.csv---------
3502.0229125193982 Wh
---------PS-Pita-010724.csv---------
3354.028535775802 Wh
---------PS-PPita-020724.csv---------
2108.4598660514303 Wh
---------RE-Bita-290624.csv---------
2806.3758941813867 Wh
---------RE-Cbel-230425.csv---------
2748.8583877468336 Wh
---------RE-Cbel-270425.csv---------
3447.9506924916877 Wh
---------RE-Eita-300624.csv---------
2816.1128217973783 Wh
---------RE-Pita-010724.csv---------
3184.9072819333232 Wh
---------RS-Cbel-230425.csv---------
2409.74286634971 Wh
---------RS-Lbel-270425.csv---------
2928.173656468392 Wh
---------TP-Bita-290624.csv---------
2814.9354968314888 Wh
---------TP-Cbel-230425.csv---------
2738.151605142086 Wh
---------TP-Eita-300624.csv---------
2815.7344251249433 Wh
---------TP-Ifra-170624.csv---------
3523.470541583867 Wh
---------TP-Lbel-270425.csv---------
3449.706917950223 Wh
---------TP-Pita-010724.csv---------
3170.320379368046 Wh
---------WA-Bita-290624.csv---------
3143.476836834763 Wh
---------WA-Pita-010724.csv---------
3351.2400341129505 Wh
---------WE-Eita-300624.csv---------
3020.1343535386186 Wh


------------------------------------------------------------------------------------

---------Summary--------------------------------------------------------------------

Maximum battery capacity necessary: 3647.98 Wh (Race: BMN-Lbel-270425.csv)

Average battery capacity necessary across all races: 3005.02 Wh

Done
--------------------------------------------------
Tail Sizing
5.00%10.00%15.00%20.00%25.00%30.00%35.00%40.00%45.00%50.00%55.00%60.00%65.00%70.00%75.00%80.00%85.00%90.00%95.00%100.00%
--------------------------------------------------
Structure Sizing
----------------------------------------------------
The Max Shear FRONT VTOL: 25964787.732889332 The Yield Shear: 330000000.0
The Max Stress FRONT VTOL: 14990777.187035149 The yield stress 480000000.0
The FRONT VTOL Thickness: 0.0010000000000000009
----------------------------------------------------
The Max Shear BACK VTOL: 59670471.88137909 The Yield Shear: 330000000.0
The Max Stress BACK VTOL: 34450763.003386214 The yield stress 480000000.0
The BACK VTOL Thickness: 0.0010000000000000009
----------------------------------------------------
The Von Mises Stress Wingbox: 326.17676947822326 The yield stress 324.0
The Von Mises Shear Wingbox: 188.31824566165471 The yield stress 283.0
The Axial stress Wingbox: 0.026607490831359645 The Buckle stress 53.896519584245596
The Tip Deflection is: 0.004923559829646543 And the Max allowable deflection is: 0.1575
The Twist Angle: -0.002456560228074871 And the allowable angle is: 0.0174
The Wingbox Thickness: 0.039 0.038 0.0010000000000000009
----------------------------------------------------
The Von Mises Stress Wingbox: 169.4810741815429 The yield stress 324.0
The Von Mises Shear Wingbox: 97.84994380126074 The yield stress 283.0
The Axial stress Wingbox: 0.013478794697465069 The Buckle stress 52.533201213649136
The Tip Deflection is: 0.0025588993965294407 And the Max allowable deflection is: 0.1575
The Twist Angle: -0.0012282801140374355 And the allowable angle is: 0.0174
The Wingbox Thickness: 0.039 0.037 0.0020000000000000018
----------------------------------------------------
The Leg Stress: 19321211.14767723 The buckle 501019.5011941891 The yield stress 324000000.0
The Leg: 0.001
----------------------------------------------------
The Leg Stress: 4830302.786919308 The buckle 2004078.0047767565 The yield stress 324000000.0
The Leg: 0.002
----------------------------------------------------
The Leg Stress: 2146801.2386308033 The buckle 4509175.510747701 The yield stress 324000000.0
The Leg: 0.003
-------------------------------------------
The Von Mises Stress Sec1: 0.352559838919218 The yield stress 150.0
The Von Mises Shear Sec1: 0.2035505179054616 The yield stress 70.0
The Axial stress Sec1: 0.26631504421751284 The Buckle stress 6800.990180221873
-------------------------------------------
The Von Mises Stress Sec2: 79.14602896945567 The yield stress 150.0
The Von Mises Shear Sec2: 45.694981130805154 The yield stress 70.0
The Axial stress Sec2: 0.5326300884350257 The Buckle stress 6800.990180221873
-------------------------------------------
The Von Mises Stress Sec3: 3.899135716200464 The yield stress 150.0
The Von Mises Shear Sec3: 2.2511670553552223 The yield stress 70.0
The Axial stress Sec3: 0.26631504421751284 The Buckle stress 6800.990180221873
-------------------------------------------
The Fuselage Thickness 0.126 0.125 0.0010000000000000009
-------------------------------------------
Passes Section 1
Passes Section 2
Passes Section 3
-------------------------------------------
Wing Skin MASS: 0.5704379234782753
VTOL POLE MASS: 1.6114547560858035
FUSELAGE MASS: 0.8352213096092636
LEG MASS: 0.09432317783137995
WingBox Mass 4.181660883857851
-------------------------------------------
THE STRUCTURE MASS: 6.722660127384298
-------------------------------------------
-------------------------------------------
THE FINAL MASS: 18.871034432490625
-------------------------------------------
Payload Mass: 2.063 kg, Propeller Mass: 3.75 kg, Battery Mass: 9.727936381628052 kg, Structure Mass: 6.722660127384298 kg
Final Mass for 3 Relay Stations: 22.263596509012352 kg (iteration 2)
Current Runtime of main: 00:14:56 (h:m:s)
------------------------------------------------------------------------------------------------------------------------------------------------------
------------------------------------------------------------------------------------------------------------------------------------------------------
Iteration 1 for 4 Relay Stations with M_init 
------------------------------------------------------------------------------------------------------------------------------------------------------
------------------------------------------------------------------------------------------------------------------------------------------------------
Wing Sizing
1) Wing setup:        0.06 s
2) Section calc:      0.00 s
3) 2D stall database: 116.32 s
4) Interpolation:     0.01 s
5) VLM sweep:         154.39 s
6) Plotting:          0.40 s
Total runtime:        271.17 s
Failed to save CSV: 'charmap' codec can't encode character '\u03b1' in position 6: character maps to <undefined>
--------------------------------------------------
Propeller Sizing
--------------------------------------------------
Battery Sizing
---------Plot Race Results---------
---------BMN-Cbel-230425.csv---------
2575.032195888795 Wh
---------BMN-Lbel-270425.csv---------
3001.922688898578 Wh
---------FV-Lbel-270425.csv---------
2338.4703918584146 Wh
---------JE-Bita-290624.csv---------
2803.872359679485 Wh
---------NP-PPita-020724.csv---------
1847.0024968844139 Wh
---------PS-Bita-290624.csv---------
2715.6378975220464 Wh
---------PS-Cbel-230425.csv---------
2302.6088898909675 Wh
---------PS-Eita-300624.csv---------
2386.324684906236 Wh
---------PS-Ifra-170624.csv---------
2224.2529483905178 Wh
---------PS-Lbel-270425.csv---------
2863.9560730612025 Wh
---------PS-Pita-010724.csv---------
2695.4777551976294 Wh
---------PS-PPita-020724.csv---------
1662.545827364747 Wh
---------RE-Bita-290624.csv---------
2321.2833426432935 Wh
---------RE-Cbel-230425.csv---------
2245.9955408147252 Wh
---------RE-Cbel-270425.csv---------
2804.5048730035687 Wh
---------RE-Eita-300624.csv---------
2240.2926975150913 Wh
---------RE-Pita-010724.csv---------
2553.071419240867 Wh
---------RS-Cbel-230425.csv---------
1854.1057516486399 Wh
---------RS-Lbel-270425.csv---------
2311.827974537923 Wh
---------TP-Bita-290624.csv---------
2337.939230663854 Wh
---------TP-Cbel-230425.csv---------
2240.0456299153807 Wh
---------TP-Eita-300624.csv---------
2246.800915103753 Wh
---------TP-Ifra-170624.csv---------
2491.4655612632587 Wh
---------TP-Lbel-270425.csv---------
2790.5265047934968 Wh
---------TP-Pita-010724.csv---------
2566.192119221574 Wh
---------WA-Bita-290624.csv---------
2702.5334592026074 Wh
---------WA-Pita-010724.csv---------
2686.6418409069356 Wh
---------WE-Eita-300624.csv---------
2409.351455464901 Wh


------------------------------------------------------------------------------------

---------Summary--------------------------------------------------------------------

Maximum battery capacity necessary: 3001.92 Wh (Race: BMN-Lbel-270425.csv)

Average battery capacity necessary across all races: 2436.42 Wh

Done
--------------------------------------------------
Tail Sizing
5.00%10.00%15.00%20.00%25.00%30.00%35.00%40.00%45.00%50.00%55.00%60.00%65.00%70.00%75.00%80.00%85.00%90.00%95.00%100.00%
--------------------------------------------------
Structure Sizing
----------------------------------------------------
The Max Shear FRONT VTOL: 25964787.732889332 The Yield Shear: 330000000.0
The Max Stress FRONT VTOL: 14990777.187035149 The yield stress 480000000.0
The FRONT VTOL Thickness: 0.0010000000000000009
----------------------------------------------------
The Max Shear BACK VTOL: 59670471.88137909 The Yield Shear: 330000000.0
The Max Stress BACK VTOL: 34450763.003386214 The yield stress 480000000.0
The BACK VTOL Thickness: 0.0010000000000000009
----------------------------------------------------
The Von Mises Stress Wingbox: 333.80234145206447 The yield stress 324.0
The Von Mises Shear Wingbox: 192.7208716934768 The yield stress 283.0
The Axial stress Wingbox: 0.026607490831359645 The Buckle stress 53.896519584245596
The Tip Deflection is: 0.005018707469923731 And the Max allowable deflection is: 0.1575
The Twist Angle: -0.002456560228074871 And the allowable angle is: 0.0174
The Wingbox Thickness: 0.039 0.038 0.0010000000000000009
----------------------------------------------------
The Von Mises Stress Wingbox: 173.4432402076643 The yield stress 324.0
The Von Mises Shear Wingbox: 100.13750142301592 The yield stress 283.0
The Axial stress Wingbox: 0.013478794697465069 The Buckle stress 52.533201213649136
The Tip Deflection is: 0.0026083500476255144 And the Max allowable deflection is: 0.1575
The Twist Angle: -0.0012282801140374355 And the allowable angle is: 0.0174
The Wingbox Thickness: 0.039 0.037 0.0020000000000000018
----------------------------------------------------
The Leg Stress: 19321211.14767723 The buckle 501019.5011941891 The yield stress 324000000.0
The Leg: 0.001
----------------------------------------------------
The Leg Stress: 4830302.786919308 The buckle 2004078.0047767565 The yield stress 324000000.0
The Leg: 0.002
----------------------------------------------------
The Leg Stress: 2146801.2386308033 The buckle 4509175.510747701 The yield stress 324000000.0
The Leg: 0.003
-------------------------------------------
The Von Mises Stress Sec1: 0.352559838919218 The yield stress 150.0
The Von Mises Shear Sec1: 0.2035505179054616 The yield stress 70.0
The Axial stress Sec1: 0.26631504421751284 The Buckle stress 6800.990180221873
-------------------------------------------
The Von Mises Stress Sec2: 79.14435776343484 The yield stress 150.0
The Von Mises Shear Sec2: 45.694016259559156 The yield stress 70.0
The Axial stress Sec2: 0.5326300884350257 The Buckle stress 6800.990180221873
-------------------------------------------
The Von Mises Stress Sec3: 3.6974477289583634 The yield stress 150.0
The Von Mises Shear Sec3: 2.1347224416286816 The yield stress 70.0
The Axial stress Sec3: 0.26631504421751284 The Buckle stress 6800.990180221873
-------------------------------------------
The Fuselage Thickness 0.126 0.125 0.0010000000000000009
-------------------------------------------
Passes Section 1
Passes Section 2
Passes Section 3
-------------------------------------------
Wing Skin MASS: 0.5704379234782753
VTOL POLE MASS: 1.6114547560858035
FUSELAGE MASS: 0.8352213096092636
LEG MASS: 0.09432317783137995
WingBox Mass 4.181660883857851
-------------------------------------------
THE STRUCTURE MASS: 6.722660127384298
-------------------------------------------
-------------------------------------------
THE FINAL MASS: 17.148225221258784
-------------------------------------------
Payload Mass: 2.063 kg, Propeller Mass: 3.75 kg, Battery Mass: 8.005127170396209 kg, Structure Mass: 6.722660127384298 kg
Final Mass for 4 Relay Stations: 20.540787297780508 kg (iteration 1)
Current Runtime of main: 00:23:08 (h:m:s)
------------------------------------------------------------------------------------------------------------------------------------------------------
------------------------------------------------------------------------------------------------------------------------------------------------------
Iteration 2 for 4 Relay Stations with M_init 
------------------------------------------------------------------------------------------------------------------------------------------------------
------------------------------------------------------------------------------------------------------------------------------------------------------
Wing Sizing
1) Wing setup:        0.04 s
2) Section calc:      0.00 s
3) 2D stall database: 75.92 s
4) Interpolation:     0.01 s
5) VLM sweep:         152.18 s
6) Plotting:          0.39 s
Total runtime:        228.53 s
Failed to save CSV: 'charmap' codec can't encode character '\u03b1' in position 6: character maps to <undefined>
--------------------------------------------------
Propeller Sizing
--------------------------------------------------
Battery Sizing
---------Plot Race Results---------
---------BMN-Cbel-230425.csv---------
2588.3038554196396 Wh
---------BMN-Lbel-270425.csv---------
3046.7692303891918 Wh
---------FV-Lbel-270425.csv---------
2312.7360406244916 Wh
---------JE-Bita-290624.csv---------
2783.0936456226673 Wh
---------NP-PPita-020724.csv---------
1823.2574447793168 Wh
---------PS-Bita-290624.csv---------
2721.4590471630468 Wh
---------PS-Cbel-230425.csv---------
2297.2410323081276 Wh
---------PS-Eita-300624.csv---------
2409.106247146934 Wh
---------PS-Ifra-170624.csv---------
2217.180014575846 Wh
---------PS-Lbel-270425.csv---------
2922.4409501726273 Wh
---------PS-Pita-010724.csv---------
2682.7422987206664 Wh
---------PS-PPita-020724.csv---------
1740.7097053788664 Wh
---------RE-Bita-290624.csv---------
2338.4891213610754 Wh
---------RE-Cbel-230425.csv---------
2222.8871243922317 Wh
---------RE-Cbel-270425.csv---------
2788.860707451485 Wh
---------RE-Eita-300624.csv---------
2253.0172045827057 Wh
---------RE-Pita-010724.csv---------
2553.825602481402 Wh
---------RS-Cbel-230425.csv---------
1827.4742832072434 Wh
---------RS-Lbel-270425.csv---------
2309.915257623137 Wh
---------TP-Bita-290624.csv---------
2344.7931608579775 Wh
---------TP-Cbel-230425.csv---------
2208.343172761205 Wh
---------TP-Eita-300624.csv---------
2252.624224637897 Wh
---------TP-Ifra-170624.csv---------
2582.4245389656703 Wh
---------TP-Lbel-270425.csv---------
2799.442608930293 Wh
---------TP-Pita-010724.csv---------
2534.21462236791 Wh
---------WA-Bita-290624.csv---------
2699.024085135866 Wh
---------WA-Pita-010724.csv---------
2681.2442817316332 Wh
---------WE-Eita-300624.csv---------
2415.0688808926934 Wh


------------------------------------------------------------------------------------

---------Summary--------------------------------------------------------------------

Maximum battery capacity necessary: 3046.77 Wh (Race: BMN-Lbel-270425.csv)

Average battery capacity necessary across all races: 2441.31 Wh

Done
--------------------------------------------------
Tail Sizing
5.00%10.00%15.00%20.00%25.00%30.00%35.00%40.00%45.00%50.00%55.00%60.00%65.00%70.00%75.00%80.00%85.00%90.00%95.00%100.00%
--------------------------------------------------
Structure Sizing
----------------------------------------------------
The Max Shear FRONT VTOL: 25964787.732889332 The Yield Shear: 330000000.0
The Max Stress FRONT VTOL: 14990777.187035149 The yield stress 480000000.0
The FRONT VTOL Thickness: 0.0010000000000000009
----------------------------------------------------
The Max Shear BACK VTOL: 59670471.88137909 The Yield Shear: 330000000.0
The Max Stress BACK VTOL: 34450763.003386214 The yield stress 480000000.0
The BACK VTOL Thickness: 0.0010000000000000009
----------------------------------------------------
The Von Mises Stress Wingbox: 326.17676947822326 The yield stress 324.0
The Von Mises Shear Wingbox: 188.31824566165471 The yield stress 283.0
The Axial stress Wingbox: 0.026607490831359645 The Buckle stress 53.896519584245596
The Tip Deflection is: 0.004923559829646543 And the Max allowable deflection is: 0.1575
The Twist Angle: -0.002456560228074871 And the allowable angle is: 0.0174
The Wingbox Thickness: 0.039 0.038 0.0010000000000000009
----------------------------------------------------
The Von Mises Stress Wingbox: 169.4810741815429 The yield stress 324.0
The Von Mises Shear Wingbox: 97.84994380126074 The yield stress 283.0
The Axial stress Wingbox: 0.013478794697465069 The Buckle stress 52.533201213649136
The Tip Deflection is: 0.0025588993965294407 And the Max allowable deflection is: 0.1575
The Twist Angle: -0.0012282801140374355 And the allowable angle is: 0.0174
The Wingbox Thickness: 0.039 0.037 0.0020000000000000018
----------------------------------------------------
The Leg Stress: 19321211.14767723 The buckle 501019.5011941891 The yield stress 324000000.0
The Leg: 0.001
----------------------------------------------------
The Leg Stress: 4830302.786919308 The buckle 2004078.0047767565 The yield stress 324000000.0
The Leg: 0.002
----------------------------------------------------
The Leg Stress: 2146801.2386308033 The buckle 4509175.510747701 The yield stress 324000000.0
The Leg: 0.003
-------------------------------------------
The Von Mises Stress Sec1: 0.352559838919218 The yield stress 150.0
The Von Mises Shear Sec1: 0.2035505179054616 The yield stress 70.0
The Axial stress Sec1: 0.26631504421751284 The Buckle stress 6800.990180221873
-------------------------------------------
The Von Mises Stress Sec2: 79.14447021178034 The yield stress 150.0
The Von Mises Shear Sec2: 45.6940811816417 The yield stress 70.0
The Axial stress Sec2: 0.5326300884350257 The Buckle stress 6800.990180221873
-------------------------------------------
The Von Mises Stress Sec3: 3.710572231941954 The yield stress 150.0
The Von Mises Shear Sec3: 2.1422998769592376 The yield stress 70.0
The Axial stress Sec3: 0.26631504421751284 The Buckle stress 6800.990180221873
-------------------------------------------
The Fuselage Thickness 0.126 0.125 0.0010000000000000009
-------------------------------------------
Passes Section 1
Passes Section 2
Passes Section 3
-------------------------------------------
Wing Skin MASS: 0.5704379234782753
VTOL POLE MASS: 1.6114547560858035
FUSELAGE MASS: 0.8352213096092636
LEG MASS: 0.09432317783137995
WingBox Mass 4.181660883857851
-------------------------------------------
THE STRUCTURE MASS: 6.722660127384298
-------------------------------------------
-------------------------------------------
THE FINAL MASS: 17.26781599856708
-------------------------------------------
Payload Mass: 2.063 kg, Propeller Mass: 3.75 kg, Battery Mass: 8.12471794770451 kg, Structure Mass: 6.722660127384298 kg
Final Mass for 4 Relay Stations: 20.660378075088808 kg (iteration 2)
Current Runtime of main: 00:31:01 (h:m:s)
------------------------------------------------------------------------------------------------------------------------------------------------------
------------------------------------------------------------------------------------------------------------------------------------------------------
Iteration 3 for 4 Relay Stations with M_init 
------------------------------------------------------------------------------------------------------------------------------------------------------
------------------------------------------------------------------------------------------------------------------------------------------------------
Wing Sizing
1) Wing setup:        0.04 s
2) Section calc:      0.00 s
3) 2D stall database: 81.59 s
4) Interpolation:     0.01 s
5) VLM sweep:         153.96 s
6) Plotting:          0.47 s
Total runtime:        236.07 s
Failed to save CSV: 'charmap' codec can't encode character '\u03b1' in position 6: character maps to <undefined>
--------------------------------------------------
Propeller Sizing
--------------------------------------------------
Battery Sizing
---------Plot Race Results---------
---------BMN-Cbel-230425.csv---------
2567.3171025821384 Wh
---------BMN-Lbel-270425.csv---------
2958.084517224539 Wh
---------FV-Lbel-270425.csv---------
2283.93833077783 Wh
---------JE-Bita-290624.csv---------
2755.3009253792793 Wh
---------NP-PPita-020724.csv---------
1804.439280764359 Wh
---------PS-Bita-290624.csv---------
2705.8962458350343 Wh
---------PS-Cbel-230425.csv---------
2254.828447817836 Wh
---------PS-Eita-300624.csv---------
2328.9314398027163 Wh
---------PS-Ifra-170624.csv---------
2217.8164980990337 Wh
---------PS-Lbel-270425.csv---------
2832.370421632823 Wh
---------PS-Pita-010724.csv---------
2607.383440534939 Wh
---------PS-PPita-020724.csv---------
1758.9668898854393 Wh
---------RE-Bita-290624.csv---------
2356.8989376055833 Wh
---------RE-Cbel-230425.csv---------
2198.3508056718874 Wh
---------RE-Cbel-270425.csv---------
2768.76072501192 Wh
---------RE-Eita-300624.csv---------
2172.6470074402314 Wh
---------RE-Pita-010724.csv---------
2501.206941246928 Wh
---------RS-Cbel-230425.csv---------
1801.5614736974658 Wh
---------RS-Lbel-270425.csv---------
2281.75918898869 Wh
---------TP-Bita-290624.csv---------
2367.583013244396 Wh
---------TP-Cbel-230425.csv---------
2187.301914137355 Wh
---------TP-Eita-300624.csv---------
2172.281064440298 Wh
---------TP-Ifra-170624.csv---------
2546.874595951209 Wh
---------TP-Lbel-270425.csv---------
2746.9406086465515 Wh
---------TP-Pita-010724.csv---------
2500.456576711498 Wh
---------WA-Bita-290624.csv---------
2680.67037984844 Wh
---------WA-Pita-010724.csv---------
2598.6197517132896 Wh
---------WE-Eita-300624.csv---------
2324.207298081463 Wh


------------------------------------------------------------------------------------

---------Summary--------------------------------------------------------------------

Maximum battery capacity necessary: 2958.08 Wh (Race: BMN-Lbel-270425.csv)

Average battery capacity necessary across all races: 2402.91 Wh

Done
--------------------------------------------------
Tail Sizing
5.00%10.00%15.00%20.00%25.00%30.00%35.00%40.00%45.00%50.00%55.00%60.00%65.00%70.00%75.00%80.00%85.00%90.00%95.00%100.00%
--------------------------------------------------
Structure Sizing
----------------------------------------------------
The Max Shear FRONT VTOL: 25964787.732889332 The Yield Shear: 330000000.0
The Max Stress FRONT VTOL: 14990777.187035149 The yield stress 480000000.0
The FRONT VTOL Thickness: 0.0010000000000000009
----------------------------------------------------
The Max Shear BACK VTOL: 59670471.88137909 The Yield Shear: 330000000.0
The Max Stress BACK VTOL: 34450763.003386214 The yield stress 480000000.0
The BACK VTOL Thickness: 0.0010000000000000009
----------------------------------------------------
The Von Mises Stress Wingbox: 321.381810796829 The yield stress 324.0
The Von Mises Shear Wingbox: 185.54987497619862 The yield stress 283.0
The Axial stress Wingbox: 0.026607490831359645 The Buckle stress 53.896519584245596
The Tip Deflection is: 0.004863730934747734 And the Max allowable deflection is: 0.1575
The Twist Angle: -0.002456560228074871 And the allowable angle is: 0.0174
The Wingbox Thickness: 0.039 0.038 0.0010000000000000009
----------------------------------------------------
The Leg Stress: 19321211.14767723 The buckle 501019.5011941891 The yield stress 324000000.0
The Leg: 0.001
----------------------------------------------------
The Leg Stress: 4830302.786919308 The buckle 2004078.0047767565 The yield stress 324000000.0
The Leg: 0.002
----------------------------------------------------
The Leg Stress: 2146801.2386308033 The buckle 4509175.510747701 The yield stress 324000000.0
The Leg: 0.003
-------------------------------------------
The Von Mises Stress Sec1: 0.352559838919218 The yield stress 150.0
The Von Mises Shear Sec1: 0.2035505179054616 The yield stress 70.0
The Axial stress Sec1: 0.26631504421751284 The Buckle stress 6800.990180221873
-------------------------------------------
The Von Mises Stress Sec2: 79.14424835687062 The yield stress 150.0
The Von Mises Shear Sec2: 45.69395309364985 The yield stress 70.0
The Axial stress Sec2: 0.5326300884350257 The Buckle stress 6800.990180221873
-------------------------------------------
The Von Mises Stress Sec3: 3.6847517633582916 The yield stress 150.0
The Von Mises Shear Sec3: 2.127392422471858 The yield stress 70.0
The Axial stress Sec3: 0.26631504421751284 The Buckle stress 6800.990180221873
-------------------------------------------
The Fuselage Thickness 0.126 0.125 0.0010000000000000009
-------------------------------------------
Passes Section 1
Passes Section 2
Passes Section 3
-------------------------------------------
Wing Skin MASS: 0.5704379234782753
VTOL POLE MASS: 1.6114547560858035
FUSELAGE MASS: 0.8352213096092636
LEG MASS: 0.09432317783137995
WingBox Mass 2.1183413687964086
-------------------------------------------
THE STRUCTURE MASS: 4.659340612322856
-------------------------------------------
-------------------------------------------
THE FINAL MASS: 14.968003915066568
-------------------------------------------
Payload Mass: 2.063 kg, Propeller Mass: 3.75 kg, Battery Mass: 7.888225379265437 kg, Structure Mass: 4.659340612322856 kg
Final Mass for 4 Relay Stations: 18.360565991588295 kg (iteration 3)
Current Runtime of main: 00:39:41 (h:m:s)
------------------------------------------------------------------------------------------------------------------------------------------------------
------------------------------------------------------------------------------------------------------------------------------------------------------
Iteration 4 for 4 Relay Stations with M_init 
------------------------------------------------------------------------------------------------------------------------------------------------------
------------------------------------------------------------------------------------------------------------------------------------------------------
Wing Sizing
1) Wing setup:        0.04 s
2) Section calc:      0.00 s
3) 2D stall database: 71.67 s
4) Interpolation:     0.01 s
